Hf4 O8 V8
1.0
5.069186 0.000000 -0.864173
0.000000 5.195148 0.000000
0.000000 0.000000 5.326038
Hf O V
4 8 8
direct
0.724041 0.457319 0.292109 Hf
0.275959 0.957319 0.207891 Hf
0.275959 0.542681 0.707891 Hf
0.724041 0.042681 0.792109 Hf
0.551113 0.742603 0.022292 O
0.448887 0.242603 0.477708 O
0.448887 0.257397 0.977708 O
0.551113 0.757397 0.522292 O
0.932151 0.330122 0.652906 O
0.067849 0.830122 0.847094 O
0.067849 0.669878 0.347094 O
0.932151 0.169878 0.152906 O
0.522616 0.110041 0.782365 V
0.500000 0.639959 0.250000 V
0.833333 0.000000 0.500000 V
0.747211 0.514587 0.862533 V
0.666667 0.000000 0.166667 V
0.086123 0.152080 0.470800 V
0.283925 0.625000 0.048547 V
0.904740 0.646880 0.592346 V
